(set-logic QF_SLIA)
(set-option :produce-models true)
(declare-const X String)
; (((\d{2}((0[13578]|1[02])(0[1-9]|[12]\d|3[01])|(0[13456789]|1[012])(0[1-9]|[12]\d|30)|02(0[1-9]|1\d|2[0-8])))|([02468][048]|[13579][26])0229))(( |-)(\d{4})( |-)(\d{3})|(\d{7}))
(assert (str.in_re X (re.++ (re.union (re.++ ((_ re.loop 2 2) (re.range "0" "9")) (re.union (re.++ (re.union (re.++ (str.to_re "0") (re.union (str.to_re "1") (str.to_re "3") (str.to_re "5") (str.to_re "7") (str.to_re "8"))) (re.++ (str.to_re "1") (re.union (str.to_re "0") (str.to_re "2")))) (re.union (re.++ (str.to_re "0") (re.range "1" "9")) (re.++ (re.union (str.to_re "1") (str.to_re "2")) (re.range "0" "9")) (re.++ (str.to_re "3") (re.union (str.to_re "0") (str.to_re "1"))))) (re.++ (re.union (re.++ (str.to_re "0") (re.union (str.to_re "1") (str.to_re "3") (str.to_re "4") (str.to_re "5") (str.to_re "6") (str.to_re "7") (str.to_re "8") (str.to_re "9"))) (re.++ (str.to_re "1") (re.union (str.to_re "0") (str.to_re "1") (str.to_re "2")))) (re.union (re.++ (str.to_re "0") (re.range "1" "9")) (re.++ (re.union (str.to_re "1") (str.to_re "2")) (re.range "0" "9")) (str.to_re "30"))) (re.++ (str.to_re "02") (re.union (re.++ (str.to_re "0") (re.range "1" "9")) (re.++ (str.to_re "1") (re.range "0" "9")) (re.++ (str.to_re "2") (re.range "0" "8")))))) (re.++ (re.union (re.++ (re.union (str.to_re "0") (str.to_re "2") (str.to_re "4") (str.to_re "6") (str.to_re "8")) (re.union (str.to_re "0") (str.to_re "4") (str.to_re "8"))) (re.++ (re.union (str.to_re "1") (str.to_re "3") (str.to_re "5") (str.to_re "7") (str.to_re "9")) (re.union (str.to_re "2") (str.to_re "6")))) (str.to_re "0229"))) (re.union (re.++ (re.union (str.to_re " ") (str.to_re "-")) ((_ re.loop 4 4) (re.range "0" "9")) (re.union (str.to_re " ") (str.to_re "-")) ((_ re.loop 3 3) (re.range "0" "9"))) ((_ re.loop 7 7) (re.range "0" "9"))) (str.to_re "\u{0a}"))))
; ^((0|(\(0\)))?|(00|(\(00\)))?(\s?|-?)(27|\(27\))|((\+27))|(\(\+27\))|\(00(\s?|-?)27\))( |-)?(\(?0?\)?)( |-)?\(?(1[0-9]|2[1-4,7-9]|3[1-6,9]|4[0-9]|5[1,3,6-9]|7[1-4,6,8,9]|8[0-9])\)?(\s?|-?)((\d{3}(\s?|-?)\d{4}$)|((\d{4})(\s?|-?)(\d{3})$)|([0-2](\s?|-?)(\d{3}(\s?|-?)\d{3}$)))
(assert (not (str.in_re X (re.++ (re.union (re.opt (re.union (str.to_re "0") (str.to_re "(0)"))) (re.++ (re.opt (re.union (str.to_re "00") (str.to_re "(00)"))) (re.union (re.opt (re.union (str.to_re " ") (str.to_re "\u{09}") (str.to_re "\u{0a}") (str.to_re "\u{0c}") (str.to_re "\u{0d}"))) (re.opt (str.to_re "-"))) (re.union (str.to_re "27") (str.to_re "(27)"))) (str.to_re "+27") (str.to_re "(+27)") (re.++ (str.to_re "(00") (re.union (re.opt (re.union (str.to_re " ") (str.to_re "\u{09}") (str.to_re "\u{0a}") (str.to_re "\u{0c}") (str.to_re "\u{0d}"))) (re.opt (str.to_re "-"))) (str.to_re "27)"))) (re.opt (re.union (str.to_re " ") (str.to_re "-"))) (re.opt (re.union (str.to_re " ") (str.to_re "-"))) (re.opt (str.to_re "(")) (re.union (re.++ (str.to_re "1") (re.range "0" "9")) (re.++ (str.to_re "2") (re.union (re.range "1" "4") (str.to_re ",") (re.range "7" "9"))) (re.++ (str.to_re "3") (re.union (re.range "1" "6") (str.to_re ",") (str.to_re "9"))) (re.++ (str.to_re "4") (re.range "0" "9")) (re.++ (str.to_re "5") (re.union (str.to_re "1") (str.to_re ",") (str.to_re "3") (re.range "6" "9"))) (re.++ (str.to_re "7") (re.union (re.range "1" "4") (str.to_re ",") (str.to_re "6") (str.to_re "8") (str.to_re "9"))) (re.++ (str.to_re "8") (re.range "0" "9"))) (re.opt (str.to_re ")")) (re.union (re.opt (re.union (str.to_re " ") (str.to_re "\u{09}") (str.to_re "\u{0a}") (str.to_re "\u{0c}") (str.to_re "\u{0d}"))) (re.opt (str.to_re "-"))) (re.union (re.++ ((_ re.loop 3 3) (re.range "0" "9")) (re.union (re.opt (re.union (str.to_re " ") (str.to_re "\u{09}") (str.to_re "\u{0a}") (str.to_re "\u{0c}") (str.to_re "\u{0d}"))) (re.opt (str.to_re "-"))) ((_ re.loop 4 4) (re.range "0" "9"))) (re.++ ((_ re.loop 4 4) (re.range "0" "9")) (re.union (re.opt (re.union (str.to_re " ") (str.to_re "\u{09}") (str.to_re "\u{0a}") (str.to_re "\u{0c}") (str.to_re "\u{0d}"))) (re.opt (str.to_re "-"))) ((_ re.loop 3 3) (re.range "0" "9"))) (re.++ (re.range "0" "2") (re.union (re.opt (re.union (str.to_re " ") (str.to_re "\u{09}") (str.to_re "\u{0a}") (str.to_re "\u{0c}") (str.to_re "\u{0d}"))) (re.opt (str.to_re "-"))) ((_ re.loop 3 3) (re.range "0" "9")) (re.union (re.opt (re.union (str.to_re " ") (str.to_re "\u{09}") (str.to_re "\u{0a}") (str.to_re "\u{0c}") (str.to_re "\u{0d}"))) (re.opt (str.to_re "-"))) ((_ re.loop 3 3) (re.range "0" "9")))) (str.to_re "\u{0a}") (re.opt (str.to_re "(")) (re.opt (str.to_re "0")) (re.opt (str.to_re ")"))))))
; /Expression\u{28}\s*?GetClass\u{28}\u{22}sun.awt.SunToolkit\u{22}\u{29}\s*?,\s*?\u{22}getField\u{22}/smi
(assert (not (str.in_re X (re.++ (str.to_re "/Expression(") (re.* (re.union (str.to_re " ") (str.to_re "\u{09}") (str.to_re "\u{0a}") (str.to_re "\u{0c}") (str.to_re "\u{0d}"))) (str.to_re "GetClass(\u{22}sun") re.allchar (str.to_re "awt") re.allchar (str.to_re "SunToolkit\u{22})") (re.* (re.union (str.to_re " ") (str.to_re "\u{09}") (str.to_re "\u{0a}") (str.to_re "\u{0c}") (str.to_re "\u{0d}"))) (str.to_re ",") (re.* (re.union (str.to_re " ") (str.to_re "\u{09}") (str.to_re "\u{0a}") (str.to_re "\u{0c}") (str.to_re "\u{0d}"))) (str.to_re "\u{22}getField\u{22}/smi\u{0a}")))))
; Try2Find\u{23}\u{23}\u{23}\u{23}ToolbarServerUser\x3A
(assert (not (str.in_re X (str.to_re "Try2Find####ToolbarServerUser:\u{0a}"))))
; (^\d{5}$)|(^\d{5}-\d{4}$)
(assert (not (str.in_re X (re.union ((_ re.loop 5 5) (re.range "0" "9")) (re.++ (str.to_re "\u{0a}") ((_ re.loop 5 5) (re.range "0" "9")) (str.to_re "-") ((_ re.loop 4 4) (re.range "0" "9")))))))
(assert (> (str.len X) 10))
(check-sat)
